p edge 70 753
e 1 10
e 1 19
e 1 22
e 1 26
e 1 27
e 1 32
e 1 37
e 1 41
e 1 45
e 1 46
e 1 47
e 1 55
e 1 57
e 1 63
e 1 67
e 1 68
e 1 70
e 2 4
e 2 5
e 2 8
e 2 9
e 2 10
e 2 11
e 2 14
e 2 15
e 2 17
e 2 20
e 2 21
e 2 24
e 2 26
e 2 29
e 2 33
e 2 42
e 2 49
e 2 53
e 2 62
e 2 63
e 2 64
e 2 65
e 2 68
e 2 69
e 3 7
e 3 10
e 3 16
e 3 18
e 3 19
e 3 21
e 3 24
e 3 28
e 3 33
e 3 34
e 3 41
e 3 43
e 3 44
e 3 48
e 3 51
e 3 53
e 3 55
e 3 56
e 3 58
e 3 59
e 3 60
e 3 66
e 3 68
e 4 5
e 4 7
e 4 10
e 4 13
e 4 14
e 4 21
e 4 22
e 4 23
e 4 24
e 4 26
e 4 33
e 4 42
e 4 43
e 4 44
e 4 47
e 4 49
e 4 51
e 4 60
e 4 62
e 4 66
e 4 68
e 4 70
e 5 9
e 5 18
e 5 24
e 5 29
e 5 33
e 5 37
e 5 38
e 5 39
e 5 40
e 5 44
e 5 46
e 5 47
e 5 53
e 5 58
e 5 60
e 5 65
e 5 70
e 6 11
e 6 13
e 6 15
e 6 17
e 6 18
e 6 21
e 6 22
e 6 23
e 6 24
e 6 28
e 6 32
e 6 33
e 6 34
e 6 36
e 6 38
e 6 39
e 6 40
e 6 42
e 6 44
e 6 45
e 6 46
e 6 47
e 6 50
e 6 55
e 6 62
e 6 63
e 6 65
e 6 67
e 7 11
e 7 14
e 7 25
e 7 26
e 7 29
e 7 34
e 7 35
e 7 38
e 7 39
e 7 40
e 7 41
e 7 42
e 7 43
e 7 44
e 7 47
e 7 54
e 7 55
e 7 57
e 7 61
e 7 66
e 8 9
e 8 20
e 8 22
e 8 25
e 8 26
e 8 41
e 8 43
e 8 45
e 8 46
e 8 47
e 8 48
e 8 50
e 8 52
e 8 55
e 8 56
e 8 60
e 8 64
e 8 66
e 8 67
e 9 10
e 9 14
e 9 15
e 9 16
e 9 30
e 9 34
e 9 35
e 9 40
e 9 41
e 9 43
e 9 44
e 9 53
e 9 66
e 10 12
e 10 13
e 10 22
e 10 27
e 10 28
e 10 29
e 10 34
e 10 39
e 10 44
e 10 46
e 10 48
e 10 52
e 10 59
e 10 60
e 10 61
e 10 64
e 10 65
e 10 68
e 10 70
e 11 16
e 11 18
e 11 25
e 11 27
e 11 30
e 11 32
e 11 33
e 11 35
e 11 36
e 11 44
e 11 53
e 11 54
e 11 61
e 11 62
e 11 66
e 11 67
e 12 16
e 12 19
e 12 22
e 12 24
e 12 26
e 12 28
e 12 32
e 12 33
e 12 35
e 12 38
e 12 39
e 12 44
e 12 50
e 12 52
e 12 54
e 12 56
e 12 62
e 12 64
e 12 67
e 12 70
e 13 17
e 13 26
e 13 28
e 13 31
e 13 37
e 13 40
e 13 45
e 13 52
e 13 55
e 13 63
e 13 64
e 13 65
e 13 67
e 13 70
e 14 17
e 14 24
e 14 25
e 14 29
e 14 32
e 14 33
e 14 36
e 14 37
e 14 47
e 14 50
e 14 52
e 14 57
e 14 58
e 14 63
e 15 18
e 15 22
e 15 26
e 15 28
e 15 30
e 15 43
e 15 45
e 15 46
e 15 49
e 15 56
e 15 62
e 15 63
e 15 65
e 15 66
e 15 69
e 15 70
e 16 19
e 16 20
e 16 21
e 16 27
e 16 28
e 16 29
e 16 32
e 16 33
e 16 34
e 16 42
e 16 43
e 16 44
e 16 45
e 16 46
e 16 50
e 16 52
e 16 54
e 16 57
e 16 61
e 16 63
e 16 67
e 16 68
e 16 70
e 17 19
e 17 23
e 17 27
e 17 30
e 17 31
e 17 39
e 17 40
e 17 43
e 17 46
e 17 54
e 17 56
e 17 59
e 17 61
e 17 63
e 17 64
e 17 65
e 17 67
e 17 69
e 18 19
e 18 21
e 18 24
e 18 27
e 18 32
e 18 39
e 18 40
e 18 46
e 18 48
e 18 53
e 18 59
e 18 63
e 18 67
e 19 24
e 19 27
e 19 32
e 19 37
e 19 43
e 19 50
e 19 51
e 19 60
e 19 66
e 19 67
e 20 21
e 20 22
e 20 23
e 20 24
e 20 25
e 20 26
e 20 32
e 20 40
e 20 44
e 20 46
e 20 50
e 20 52
e 20 57
e 20 60
e 20 65
e 20 66
e 21 23
e 21 32
e 21 39
e 21 40
e 21 41
e 21 42
e 21 45
e 21 46
e 21 52
e 21 55
e 21 63
e 21 68
e 22 23
e 22 28
e 22 29
e 22 32
e 22 34
e 22 36
e 22 45
e 22 49
e 22 50
e 22 57
e 22 59
e 22 60
e 22 61
e 22 66
e 22 69
e 23 26
e 23 28
e 23 30
e 23 31
e 23 32
e 23 33
e 23 34
e 23 37
e 23 38
e 23 41
e 23 42
e 23 43
e 23 55
e 23 56
e 23 57
e 23 58
e 23 61
e 23 69
e 24 27
e 24 31
e 24 32
e 24 37
e 24 38
e 24 43
e 24 44
e 24 46
e 24 48
e 24 50
e 24 51
e 24 54
e 24 55
e 24 60
e 24 61
e 24 64
e 24 66
e 24 67
e 25 26
e 25 27
e 25 39
e 25 42
e 25 44
e 25 46
e 25 47
e 25 48
e 25 49
e 25 52
e 25 56
e 25 61
e 25 63
e 25 67
e 25 68
e 25 69
e 26 27
e 26 31
e 26 32
e 26 33
e 26 39
e 26 41
e 26 43
e 26 47
e 26 49
e 26 51
e 26 53
e 26 55
e 26 57
e 26 62
e 26 63
e 26 64
e 26 68
e 26 70
e 27 28
e 27 29
e 27 31
e 27 32
e 27 43
e 27 47
e 27 51
e 27 53
e 27 56
e 27 59
e 27 60
e 27 67
e 27 68
e 27 70
e 28 29
e 28 32
e 28 35
e 28 37
e 28 38
e 28 41
e 28 45
e 28 46
e 28 50
e 28 52
e 28 54
e 28 65
e 28 67
e 28 69
e 29 32
e 29 34
e 29 37
e 29 38
e 29 41
e 29 45
e 29 48
e 29 51
e 29 54
e 29 62
e 29 65
e 29 66
e 29 68
e 30 34
e 30 36
e 30 42
e 30 44
e 30 48
e 30 49
e 30 52
e 30 54
e 30 61
e 30 64
e 30 66
e 30 68
e 30 69
e 31 32
e 31 33
e 31 34
e 31 35
e 31 37
e 31 38
e 31 39
e 31 40
e 31 41
e 31 45
e 31 46
e 31 52
e 31 56
e 31 58
e 31 64
e 31 65
e 31 68
e 32 34
e 32 35
e 32 39
e 32 41
e 32 42
e 32 43
e 32 47
e 32 60
e 32 61
e 32 62
e 32 63
e 32 64
e 32 67
e 33 38
e 33 40
e 33 42
e 33 43
e 33 48
e 33 49
e 33 51
e 33 54
e 33 55
e 33 56
e 33 57
e 33 61
e 33 67
e 34 38
e 34 39
e 34 40
e 34 59
e 34 60
e 34 64
e 34 65
e 34 70
e 35 36
e 35 37
e 35 38
e 35 53
e 35 54
e 35 58
e 35 62
e 35 66
e 36 38
e 36 49
e 36 56
e 36 58
e 36 59
e 36 62
e 36 63
e 36 68
e 37 44
e 37 45
e 37 46
e 37 58
e 37 60
e 37 62
e 37 65
e 37 66
e 37 69
e 38 39
e 38 41
e 38 48
e 38 51
e 38 55
e 38 57
e 38 65
e 38 68
e 39 41
e 39 42
e 39 44
e 39 46
e 39 50
e 39 51
e 39 52
e 39 58
e 39 68
e 39 69
e 39 70
e 40 49
e 40 50
e 40 68
e 40 69
e 40 70
e 41 44
e 41 48
e 41 49
e 41 59
e 41 60
e 41 63
e 41 69
e 42 47
e 42 52
e 42 56
e 42 62
e 42 63
e 42 68
e 43 44
e 43 46
e 43 48
e 43 52
e 43 55
e 43 56
e 43 61
e 43 64
e 43 65
e 43 68
e 43 70
e 44 49
e 44 52
e 44 54
e 44 62
e 44 63
e 44 64
e 44 67
e 45 55
e 45 57
e 45 59
e 45 61
e 45 66
e 45 70
e 46 47
e 46 49
e 46 51
e 46 54
e 46 55
e 46 58
e 46 60
e 47 48
e 47 50
e 47 52
e 47 53
e 47 57
e 47 58
e 47 59
e 47 65
e 48 50
e 48 52
e 48 54
e 48 55
e 48 58
e 48 61
e 48 66
e 48 70
e 49 56
e 49 58
e 49 62
e 49 64
e 49 65
e 49 67
e 49 68
e 50 52
e 50 53
e 50 59
e 50 61
e 50 62
e 50 64
e 50 68
e 51 56
e 51 57
e 51 58
e 51 62
e 51 67
e 51 69
e 52 55
e 52 58
e 52 60
e 52 61
e 52 63
e 52 65
e 52 67
e 52 68
e 53 55
e 53 57
e 53 58
e 53 61
e 53 69
e 54 55
e 54 61
e 54 66
e 54 67
e 54 70
e 55 56
e 55 57
e 55 59
e 55 60
e 55 61
e 55 63
e 55 64
e 55 66
e 55 67
e 55 70
e 56 59
e 56 60
e 56 69
e 57 58
e 57 62
e 57 63
e 57 67
e 58 62
e 58 63
e 58 64
e 58 66
e 58 67
e 59 61
e 59 68
e 59 69
e 60 61
e 60 62
e 60 63
e 60 67
e 61 65
e 61 66
e 61 67
e 61 68
e 62 68
e 63 64
e 63 68
e 64 65
e 64 66
e 64 67
e 64 70
e 68 70
e 69 70